RAW/XT/fspd-mid/X-n134-k13.vrp_seed-3.out
10147	113.037	164.566
