RAW/XT/fspd-mid/X-n134-k13.vrp_seed-3.sol
Route #1: 132 109 87 74 78 83
Route #2: 38 103 10 62 32 54 110 123 26 35 50
Route #3: 106 45 21 46 99 111 104 57 119
Route #4: 128 115 133 12 85 29 92 31
Route #5: 19 130 3 72 86 33 124 82 80 17 76
Route #6: 129 116 89 113 25 105 41 34 58 60
Route #7: 56 24 37 88 102 94 93 36 43 120 79
Route #8: 112 48 64 117 49 71 61 1 69
Route #9: 91 14 2 9 47 16 51 118
Route #10: 95 52 131 11 114 127 125 122 100
Route #11: 101 108 6 77 5 97 13 96 59 18 73 39 40
Route #12: 121 7 63 15 81 68 30 23 98 44 8 107 84 70 4 27 22 55 126 67 20 75 28 65 42 53 66 90
Cost 10147.000000